outputs/case_322.model.txt
internal_control_system_established = True
internal_handling_system_established = True
internal_handling_system_executed = True
internal_operation_system_executed = True
internal_control_system_executed = True
no_response_or_false_response = False
internal_operation_system_established = True
refused_inspection_or_open_vault = False
concealed_or_destroyed_documents = False
late_or_false_report_or_unpaid_fee = False
internal_operation_executed = True
internal_handling_established = True
documents_concealed_or_destroyed = False
internal_operation_ok = True
internal_handling_ok = True
internal_control_executed = True
inspection_refused = False
violation_internal_control = False
penalty = False
internal_operation_established = True
internal_handling_executed = True
internal_control_established = True
late_or_false_report = False
internal_control_ok = True
violation_inspection = False
unjustified_no_response = False